NAME : block_30.395528.tour
COMMENT : Length = 395528
COMMENT : Found by LKH-3 [Keld Helsgaun] Wed Apr 22 15:46:55 2026
TYPE : TOUR
DIMENSION : 115
TOUR_SECTION
115
1
37
28
20
13
7
8
3
4
9
15
14
21
29
38
46
55
64
73
82
83
89
95
101
106
111
112
107
102
96
90
84
75
74
65
56
47
39
30
22
23
31
40
48
57
66
67
76
85
91
97
103
108
113
114
109
110
105
104
98
92
86
77
68
59
58
49
41
32
24
17
16
10
5
6
11
12
18
25
33
42
50
51
60
69
78
87
93
99
100
94
88
79
70
61
52
44
43
34
26
19
27
35
36
45
53
62
71
80
81
72
63
54
2
-1
EOF
